Assignment_Problem.lp
\ENCODING=ISO-8859-1
\Problem name: ilog.cplex

Minimize
 obj: 90 x(0)(0)#0 + 80 x(0)(1)#1 + 75 x(0)(2)#2 + 70 x(0)(3)#3 + 35 x(1)(0)#4
      + 85 x(1)(1)#5 + 55 x(1)(2)#6 + 65 x(1)(3)#7 + 125 x(2)(0)#8
      + 95 x(2)(1)#9 + 90 x(2)(2)#10 + 95 x(2)(3)#11 + 45 x(3)(0)#12
      + 110 x(3)(1)#13 + 95 x(3)(2)#14 + 115 x(3)(3)#15 + 50 x(4)(0)#16
      + 100 x(4)(1)#17 + 90 x(4)(2)#18 + 100 x(4)(3)#19
Subject To
 c1:  x(0)(0)#0 + x(0)(1)#1 + x(0)(2)#2 + x(0)(3)#3 <= 1
 c3:  x(1)(0)#4 + x(1)(1)#5 + x(1)(2)#6 + x(1)(3)#7 <= 1
 c5:  x(2)(0)#8 + x(2)(1)#9 + x(2)(2)#10 + x(2)(3)#11 <= 1
 c7:  x(3)(0)#12 + x(3)(1)#13 + x(3)(2)#14 + x(3)(3)#15 <= 1
 c9:  x(4)(0)#16 + x(4)(1)#17 + x(4)(2)#18 + x(4)(3)#19 <= 1
 c11: x(0)(0)#0 + x(1)(0)#4 + x(2)(0)#8 + x(3)(0)#12 + x(4)(0)#16  = 1
 c13: x(0)(1)#1 + x(1)(1)#5 + x(2)(1)#9 + x(3)(1)#13 + x(4)(1)#17  = 1
 c15: x(0)(2)#2 + x(1)(2)#6 + x(2)(2)#10 + x(3)(2)#14 + x(4)(2)#18  = 1
 c17: x(0)(3)#3 + x(1)(3)#7 + x(2)(3)#11 + x(3)(3)#15 + x(4)(3)#19  = 1
Bounds
 0 <= x(0)(0)#0 <= 1
 0 <= x(0)(1)#1 <= 1
 0 <= x(0)(2)#2 <= 1
 0 <= x(0)(3)#3 <= 1
 0 <= x(1)(0)#4 <= 1
 0 <= x(1)(1)#5 <= 1
 0 <= x(1)(2)#6 <= 1
 0 <= x(1)(3)#7 <= 1
 0 <= x(2)(0)#8 <= 1
 0 <= x(2)(1)#9 <= 1
 0 <= x(2)(2)#10 <= 1
 0 <= x(2)(3)#11 <= 1
 0 <= x(3)(0)#12 <= 1
 0 <= x(3)(1)#13 <= 1
 0 <= x(3)(2)#14 <= 1
 0 <= x(3)(3)#15 <= 1
 0 <= x(4)(0)#16 <= 1
 0 <= x(4)(1)#17 <= 1
 0 <= x(4)(2)#18 <= 1
 0 <= x(4)(3)#19 <= 1
Generals
 x(0)(0)#0  x(0)(1)#1  x(0)(2)#2  x(0)(3)#3  x(1)(0)#4  x(1)(1)#5  x(1)(2)#6 
 x(1)(3)#7  x(2)(0)#8  x(2)(1)#9  x(2)(2)#10  x(2)(3)#11  x(3)(0)#12 
 x(3)(1)#13  x(3)(2)#14  x(3)(3)#15  x(4)(0)#16  x(4)(1)#17  x(4)(2)#18 
 x(4)(3)#19 
End
