Assignment_Problem.log
Found incumbent of value 380.000000 after 0.05 sec. (0.00 ticks)
Tried aggregator 1 time.
Reduced MIP has 9 rows, 20 columns, and 40 nonzeros.
Reduced MIP has 20 binaries, 0 generals, 0 SOSs, and 0 indicators.
Presolve time = 0.09 sec. (0.02 ticks)
Probing time = 0.00 sec. (0.01 ticks)
Tried aggregator 1 time.
Reduced MIP has 9 rows, 20 columns, and 40 nonzeros.
Reduced MIP has 20 binaries, 0 generals, 0 SOSs, and 0 indicators.
Presolve time = 0.00 sec. (0.02 ticks)
Probing time = 0.00 sec. (0.01 ticks)
Clique table members: 9.
MIP emphasis: balance optimality and feasibility.
MIP search method: dynamic search.
Parallel mode: deterministic, using up to 4 threads.
Root relaxation solution time = 0.09 sec. (0.02 ticks)

        Nodes                                         Cuts/
   Node  Left     Objective  IInf  Best Integer    Best Bound    ItCnt     Gap

*     0+    0                          380.0000        0.0000        7  100.00%
*     0+    0                          275.0000        0.0000        7  100.00%
*     0     0      integral     0      265.0000      265.0000        7    0.00%
Elapsed time = 0.36 sec. (0.13 ticks, tree = 0.00 MB, solutions = 3)

Root node processing (before b&c):
  Real time             =    0.38 sec. (0.13 ticks)
Parallel b&c, 4 threads:
  Real time             =    0.00 sec. (0.00 ticks)
  Sync time (average)   =    0.00 sec.
  Wait time (average)   =    0.00 sec.
                          ------------
Total (root+branch&cut) =    0.38 sec. (0.13 ticks)
Solution status = Optimal



Total Assignment Cost = 265.0

Worker 0 assigned to task 3.  Cost = 70.0  ---->  x[0][3] = 1.0
Worker 1 assigned to task 2.  Cost = 55.0  ---->  x[1][2] = 1.0
Worker 2 assigned to task 1.  Cost = 95.0  ---->  x[2][1] = 1.0
Worker 3 assigned to task 0.  Cost = 45.0  ---->  x[3][0] = 1.0
